(set-logic QF_UF)
(declare-fun A0 () Bool)
(declare-fun A1 () Bool)
(declare-fun A2 () Bool)
(declare-fun A3 () Bool)
(declare-fun A4 () Bool)
(declare-fun A5 () Bool)
(declare-fun A7 () Bool)
(declare-fun A10 () Bool)
(declare-fun A11 () Bool)
(declare-fun A13 () Bool)
(declare-fun A15 () Bool)
(declare-fun A16 () Bool)
(declare-fun A17 () Bool)
(declare-fun A18 () Bool)
(declare-fun A19 () Bool)
(declare-fun A20 () Bool)
(declare-fun A21 () Bool)
(declare-fun A22 () Bool)
(declare-fun A23 () Bool)
(declare-fun A24 () Bool)
(declare-fun A25 () Bool)
(declare-fun A26 () Bool)
(declare-fun A27 () Bool)
(declare-fun A29 () Bool)
(assert (let ((.def_0 (not A7))) (let ((.def_1 (and A16 .def_0))) (let ((.def_2 (not A22))) (let ((.def_3 (or A4 .def_2))) (let ((.def_4 (or .def_3 .def_1))) (let ((.def_5 (not .def_4))) (let ((.def_6 (not A3))) (let ((.def_7 (or A27 .def_6))) (let ((.def_8 (not A5))) (let ((.def_9 (not A13))) (let ((.def_10 (or .def_9 .def_8))) (let ((.def_11 (not .def_10))) (let ((.def_12 (and .def_11 .def_7))) (let ((.def_13 (not .def_12))) (let ((.def_14 (or .def_13 .def_5))) (let ((.def_15 (not .def_14))) (let ((.def_16 (and A0 .def_0))) (let ((.def_17 (not .def_16))) (let ((.def_18 (not A25))) (let ((.def_19 (= A7 .def_18))) (let ((.def_20 (not .def_19))) (let ((.def_21 (or .def_20 .def_17))) (let ((.def_22 (not .def_21))) (let ((.def_23 (not A10))) (let ((.def_24 (and .def_23 A20))) (let ((.def_25 (and A1 A0))) (let ((.def_26 (not .def_25))) (let ((.def_27 (or .def_26 .def_24))) (let ((.def_28 (and .def_27 .def_22))) (let ((.def_29 (not .def_28))) (let ((.def_30 (and .def_29 .def_15))) (let ((.def_31 (and A25 A2))) (let ((.def_32 (not .def_31))) (let ((.def_33 (not A23))) (let ((.def_34 (not A2))) (let ((.def_35 (or .def_34 .def_33))) (let ((.def_36 (not .def_35))) (let ((.def_37 (and .def_36 .def_32))) (let ((.def_38 (not .def_37))) (let ((.def_39 (not A1))) (let ((.def_40 (or .def_39 A20))) (let ((.def_41 (and .def_8 .def_8))) (let ((.def_42 (not .def_41))) (let ((.def_43 (and .def_42 .def_40))) (let ((.def_44 (and .def_43 .def_38))) (let ((.def_45 (not .def_44))) (let ((.def_46 (and .def_9 A25))) (let ((.def_47 (not A19))) (let ((.def_48 (and A27 .def_47))) (let ((.def_49 (or .def_48 .def_46))) (let ((.def_50 (not A0))) (let ((.def_51 (not A27))) (let ((.def_52 (and .def_51 .def_50))) (let ((.def_53 (not .def_52))) (let ((.def_54 (and A17 A4))) (let ((.def_55 (not .def_54))) (let ((.def_56 (and .def_55 .def_53))) (let ((.def_57 (not .def_56))) (let ((.def_58 (or .def_57 .def_49))) (let ((.def_59 (not .def_58))) (let ((.def_60 (and .def_59 .def_45))) (let ((.def_61 (not .def_60))) (let ((.def_62 (and .def_61 .def_30))) (let ((.def_63 (and .def_6 .def_51))) (let ((.def_64 (not .def_63))) (let ((.def_65 (or A18 A29))) (let ((.def_66 (or .def_65 .def_64))) (let ((.def_67 (or .def_2 .def_9))) (let ((.def_68 (not .def_67))) (let ((.def_69 (not A4))) (let ((.def_70 (not A29))) (let ((.def_71 (or .def_70 .def_69))) (let ((.def_72 (not .def_71))) (let ((.def_73 (and .def_72 .def_68))) (let ((.def_74 (not .def_73))) (let ((.def_75 (or .def_74 .def_66))) (let ((.def_76 (or A0 A15))) (let ((.def_77 (or A22 .def_39))) (let ((.def_78 (not .def_77))) (let ((.def_79 (and .def_78 .def_76))) (let ((.def_80 (not .def_79))) (let ((.def_81 (and .def_23 .def_23))) (let ((.def_82 (not A18))) (let ((.def_83 (or A22 .def_82))) (let ((.def_84 (not .def_83))) (let ((.def_85 (and .def_84 .def_81))) (let ((.def_86 (and .def_85 .def_80))) (let ((.def_87 (or .def_86 .def_75))) (let ((.def_88 (or A1 A29))) (let ((.def_89 (not .def_88))) (let ((.def_90 (and .def_6 A19))) (let ((.def_91 (and .def_90 .def_89))) (let ((.def_92 (not .def_91))) (let ((.def_93 (not A16))) (let ((.def_94 (and .def_51 .def_93))) (let ((.def_95 (and .def_8 A10))) (let ((.def_96 (not .def_95))) (let ((.def_97 (and .def_96 .def_94))) (let ((.def_98 (not .def_97))) (let ((.def_99 (and .def_98 .def_92))) (let ((.def_100 (not A20))) (let ((.def_101 (not A21))) (let ((.def_102 (= .def_101 .def_100))) (let ((.def_103 (not .def_102))) (let ((.def_104 (not A26))) (let ((.def_105 (or .def_104 A15))) (let ((.def_106 (not .def_105))) (let ((.def_107 (and .def_106 .def_103))) (let ((.def_108 (not A24))) (let ((.def_109 (or .def_108 A7))) (let ((.def_110 (not .def_109))) (let ((.def_111 (or .def_18 A11))) (let ((.def_112 (or .def_111 .def_110))) (let ((.def_113 (or .def_112 .def_107))) (let ((.def_114 (not .def_113))) (let ((.def_115 (or .def_114 .def_99))) (let ((.def_116 (not .def_115))) (let ((.def_117 (or .def_116 .def_87))) (let ((.def_118 (not .def_117))) (let ((.def_119 (or .def_118 .def_62))) (let ((.def_120 (not .def_119))) .def_120))))))))))))))))))))))))))))))))))))))))))))))))))))))))))))))))))))))))))))))))))))))))))))))))))))))))))))))))))))))))))
(check-sat)
